CapLotSizing_PM/src/Instancias/NCHSHT/12i18p4m/NBA03.OUT
 CG ITER, OVMR, OVMRUB =           1   65818.0937500   65818.0937500
 CG ITER, OVMR, OVMRUB =           2   65818.0937500   65818.0937500
 CG ITER, OVMR, OVMRUB =           3   65818.1015625   65818.0937500
 CG ITER, OVMR, OVMRUB =           4   65818.1015625   65818.0937500
 CG ITER, OVMR, OVMRUB =           5   65818.0937500   65818.0937500
 CG ITER, OVMR, OVMRUB =           6   65818.0937500   65818.0937500
 CG ITER, OVMR, OVMRUB =           7   65818.0937500   65818.0937500
 CG ITER, OVMR, OVMRUB =           8   65818.0937500   65818.0937500
 CG ITER, OVMR, OVMRUB =           9   65818.0937500   65818.0937500
 CG ITER, OVMR, OVMRUB =          10   65818.1015625   65818.0937500
 CG ITER, OVMR, OVMRUB =          11   65818.0937500   65818.0937500
 CG ITER, OVMR, OVMRUB =          12   65818.0703125   65818.0937500
 CG ITER, OVMR, OVMRUB =          13   65792.2421875   65818.0937500
 CG ITER, OVMR, OVMRUB =          14   65723.7421875   65818.0937500
 CG ITER, OVMR, OVMRUB =          15   64284.1328125   65818.0937500
 CG ITER, OVMR, OVMRUB =          16   63307.4375000   65818.0937500
 CG ITER, OVMR, OVMRUB =          17   62242.1992188   65818.0937500
 CG ITER, OVMR, OVMRUB =          18   61989.0156250   65818.0937500
 CG ITER, OVMR, OVMRUB =          19   61909.5937500   65818.0937500
 CG ITER, OVMR, OVMRUB =          20   62247.4726562   65818.0937500
 CG ITER, OVMR, OVMRUB =          21   62248.3437500   65818.0937500
 CG ITER, OVMR, OVMRUB =          22   62429.4140625   65818.0937500
 CG ITER, OVMR, OVMRUB =          23   62519.4492188   65818.0937500
 CG ITER, OVMR, OVMRUB =          24   62542.5898438   65818.0937500
 CG ITER, OVMR, OVMRUB =          25   62603.0625000   65818.0937500
 CG ITER, OVMR, OVMRUB =          26   62705.6367188   65818.0937500
 CG ITER, OVMR, OVMRUB =          27   62761.9570312   65818.0937500
 CG ITER, OVMR, OVMRUB =          28   62817.6875000   65818.0937500
 CG ITER, OVMR, OVMRUB =          29   62915.3710938   65818.0937500
 CG ITER, OVMR, OVMRUB =          30   62983.5781250   65818.0937500
 CG ITER, OVMR, OVMRUB =          31   63045.7031250   65818.0937500
 CG ITER, OVMR, OVMRUB =          32   63111.4296875   65818.0937500
 CG ITER, OVMR, OVMRUB =          33   63170.0507812   65818.0937500
 CG ITER, OVMR, OVMRUB =          34   63228.0117188   65818.0937500
 CG ITER, OVMR, OVMRUB =          35   63284.3203125   65818.0937500
 CG ITER, OVMR, OVMRUB =          36   63330.8515625   65818.0937500
 CG ITER, OVMR, OVMRUB =          37   63382.9296875   65818.0937500
 CG ITER, OVMR, OVMRUB =          38   63429.3203125   65818.0937500
 CG ITER, OVMR, OVMRUB =          39   63473.0078125   65818.0937500
 CG ITER, OVMR, OVMRUB =          40   63519.4218750   65818.0937500
 CG ITER, OVMR, OVMRUB =          41   63559.9570312   65818.0937500
 CG ITER, OVMR, OVMRUB =          42   63596.9023438   65818.0937500
 CG ITER, OVMR, OVMRUB =          43   63630.1601562   65818.0937500
 CG ITER, OVMR, OVMRUB =          44   63655.4492188   65818.0937500
 CG ITER, OVMR, OVMRUB =          45   63680.9375000   65818.0937500
 CG ITER, OVMR, OVMRUB =          46   63704.9023438   65818.0937500
 CG ITER, OVMR, OVMRUB =          47   63729.0937500   65818.0937500
 CG ITER, OVMR, OVMRUB =          48   63683.1757812   65818.0937500
 CG ITER, OVMR, OVMRUB =          49   63595.3281250   65818.0937500
 CG ITER, OVMR, OVMRUB =          50   63574.4296875   65818.0937500
 CG ITER, OVMR, OVMRUB =          51   63551.5390625   65818.0937500
 CG ITER, OVMR, OVMRUB =          52   63553.0234375   65818.0937500
 CG ITER, OVMR, OVMRUB =          53   63555.0156250   65818.0937500
 CG ITER, OVMR, OVMRUB =          54   63554.8398438   65818.0937500
 CG ITER, OVMR, OVMRUB =          55   63554.7148438   65818.0937500
 CG ITER, OVMR, OVMRUB =          56   63556.4218750   65818.0937500
 CG ITER, OVMR, OVMRUB =          57   63561.4492188   65818.0937500
 CG ITER, OVMR, OVMRUB =          58   63538.8359375   65818.0937500
 CG ITER, OVMR, OVMRUB =          59   63540.3554688   65818.0937500
 CG ITER, OVMR, OVMRUB =          60   63502.0664062   65818.0937500
 CG ITER, OVMR, OVMRUB =          61   63490.3750000   65818.0937500
 CG ITER, OVMR, OVMRUB =          62   63494.8007812   65818.0937500
 CG ITER, OVMR, OVMRUB =          63   63494.8007812   65818.0937500
OVLB =   63494.8007812 OVLUB =   65818.0937500 TIME =      22.8799992
